100 89868

 282 764
562 527
258 735
823 379
360 201
440 619
270 250
134 949
746 409
640 601
104 125
766 113
95 981
849 137
729 759
573 496
480 678
780 150
241 875
13 343
147 945
940 580
752 733
601 783
95 321
827 822
293 926
25 861
272 532
505 289
166 489
939 492
762 612
87 252
654 982
646 77
985 647
791 392
638 412
828 173
491 875
908 201
141 217
868 376
103 720
226 586
902 11
575 799
294 768
896 12
306 892
254 991
180 590
40 435
776 684
701 608
520 818
616 373
737 273
546 931
236 897
463 925
228 691
700 576
825 509
483 132
430 855
22 924
343 784
40 319
173 844
439 949
179 853
598 621
133 785
351 168
525 397
540 180
506 58
84 480
993 933
464 591
830 460
861 61
343 369
280 121
866 719
263 546
166 582
293 17
509 496
580 497
226 505
170 532
598 969
645 315
448 69
690 727
855 161
502 614
